NAME : KROA149C.32235.tour
COMMENT : Cost = 0_32235
COMMENT : Found by LKH [Keld Helsgaun] Sun Sep 17 16:52:43 2017
TYPE : TOUR
DIMENSION : 149
TOUR_SECTION
1
46
97
27
66
107
57
60
50
124
144
56
7
116
33
119
114
122
42
127
40
70
13
45
28
111
106
100
77
51
36
102
145
32
75
12
94
125
81
115
49
2
143
63
39
53
137
132
88
30
79
8
91
62
6
48
89
105
78
87
15
93
21
69
65
128
25
123
117
64
4
118
142
55
121
41
138
96
74
18
52
133
136
17
23
37
103
110
101
98
35
83
9
112
71
20
73
126
58
140
16
14
10
31
108
90
44
22
59
61
149
34
85
26
19
11
148
54
82
139
134
131
3
135
99
47
29
120
95
5
146
38
84
67
72
43
113
68
80
24
86
76
109
130
92
104
141
147
129
-1
EOF
